DATASET = "thpack3";
INSTANCE = "031";

WIDTH = 233;
HEIGHT = 220;
LENGTH = 587;

NO_OF_SHAPES = 8;
size = [|
  70,63,49 |
  84,54,49 |
  89,70,42 |
  80,48,39 |
  114,47,42 |
  92,62,34 |
  72,66,43 |
  120,55,46 |
|];

verticality = [|
  1,1,1 |
  1,1,1 |
  0,1,1 |
  0,1,1 |
  0,1,1 |
  0,1,1 |
  1,1,1 |
  0,1,1 |
|];

box_count = [
  19,
  19,
  14,
  16,
  13,
  22,
  17,
  16,
];
